webassembly/ejemplos_dzn/7/folder7_json_64.dzn
TERM = { '.', 's(2)', 'in_1', 'local_1', 'in_2', 'in_4', 'in_3', 's(1)', 's(0)', 'in_0'};
null = '.';
s = 7;
n = 10;
ndeps = 6;
max_registers_sz = 4;
NR = 1;
registers = [|'local_1', 'in_4'|];
dependencies = [|'i32.load_0', 'call[function_index(0)]_1', |'call[function_index(0)]_1', 'i32.store_2', |'i32.store_2', 'i32.load16_s_3', |'i32.store_2', 'i32.load8_u_4', |'i32.load16_s_3', 'i32.store8_5', |'i32.load8_u_4', 'i32.store8_5'|];
GET_ENUM = { GET1, GET2, GET3, GET4, GET5};
SET_ENUM = { SET1, SET2, SET3, SET4, SET5};
TEE_ENUM = { TEE1, TEE2, TEE3, TEE4, TEE5};
N = 6;
OP = { 'call[function_index(0)]_1', 'i32.load_0', 'i32.store_2', 'i32.load16_s_3', 'i32.load8_u_4', 'i32.store8_5' };
in_ops = [0, 1, 2, 1, 1, 2 ];
out_ops = [0, 1, 0, 1, 1, 0 ];
in1 = ['.', 'in_0', 's(0)', 'in_2', 's(1)', 's(2)' ];
in2 = ['.', '.', 'in_1', '.', '.', 'in_3' ];
in3 = ['.', '.', '.', '.', '.', '.' ];
out1 = ['.', 's(0)', '.', 's(1)', 's(2)', '.' ];
out2 = ['.', '.', '.', '.', '.', '.' ];
out3 = ['.', '.', '.', '.', '.', '.' ];
comm = [false, false, false, false, false, false ];
gas = [1, 1, 1, 1, 1, 1 ];
sz = [1, 1, 1, 1, 1, 1 ];
stor = [true, false, true, false, false, true ];
lb = [ 1, 1, 1, 1, 1, 1 ];
ub = [ 7, 7, 7, 7, 7, 7 ];
startstack = [ 'in_0', 'in_1', 'in_2', 'in_3', 'in_4', null, null, null, null, null ];
endstack = [ 'in_4', null, null, null, null, null, null, null, null, null ];
